[runlim] version:		2.0.0rc12
[runlim] host:			ap-Precision-7550
[runlim] time limit:		311040000 seconds
[runlim] real time limit:	600 seconds
[runlim] space limit:		14000 MB
[runlim] argv[0]:		python3
[runlim] argv[1]:		cp_no.py
[runlim] argv[2]:		graph04
[runlim] start:			Wed Mar 25 05:56:16 2026
[runlim] child:			70626
--- Building model for 400 variables ---
--- Solving with CP Optimizer (Integer Mode) ---
 ! --------------------------------------------------- CP Optimizer 22.1.1.0 --
 ! Minimization problem - 400 variables, 2244 constraints
 ! LogVerbosity         = Terse
 ! Initial process time : 0.02s (0.02s extraction + 0.00s propagation)
 !  . Log search space  : 2088.3 (before), 2088.3 (after)
 !  . Memory usage      : 1.4 MB (before), 1.4 MB (after)
 ! Using parallel search with 12 workers.
 ! ----------------------------------------------------------------------------
 !          Best Branches  Non-fixed    W       Branch decision
                        0        400                 -
 + New bound is 0
                        0        400                 -
 + New bound is 1
                        0        400    1            -
 + New bound is 2
                       22        400    1   F   380 != node_106
 + New bound is 3
 *            44      326  0.09s        2      (gap is 93.18%)
 *            42     7722  0.38s       10      (gap is 92.86%)
 *            40    13681  0.74s        9      (gap is 92.50%)
 *            38    13743  0.74s        9      (gap is 92.11%)
 *            36    14145  0.80s        9      (gap is 91.67%)
 *            34    17693  0.87s       12      (gap is 91.18%)
 *            32    13384  0.87s        1      (gap is 90.62%)
 *            30    19157  1.13s        4      (gap is 90.00%)
 *            28    19279  1.21s        4      (gap is 89.29%)
 *            26    20782  1.38s        4      (gap is 88.46%)
 *            24    20826  1.45s        9      (gap is 87.50%)
 *            22    21305  1.54s        9      (gap is 86.36%)
              22    21532        384   11   F   750 != node_320
 + New bound is 13 (gap is 40.91%)
[runlim] sample:		80.41 time, 10.02 real, 135 MB, 9.44 load
[runlim] sample:		165.11 time, 20.01 real, 144 MB, 9.59 load
[runlim] sample:		250.84 time, 30.01 real, 149 MB, 9.96 load
[runlim] sample:		338.38 time, 40.02 real, 152 MB, 8.67 load
[runlim] sample:		424.57 time, 50.02 real, 155 MB, 8.96 load
[runlim] sample:		512.02 time, 60.01 real, 158 MB, 9.35 load
[runlim] sample:		596.42 time, 70.02 real, 159 MB, 9.45 load
[runlim] sample:		682.35 time, 80.01 real, 161 MB, 9.28 load
[runlim] sample:		770.61 time, 90.01 real, 163 MB, 8.74 load
[runlim] sample:		859.97 time, 100.02 real, 165 MB, 8.35 load
[runlim] sample:		947.72 time, 110.01 real, 166 MB, 8.68 load
[runlim] sample:		1034.83 time, 120.02 real, 168 MB, 8.63 load
[runlim] sample:		1121.88 time, 130.02 real, 169 MB, 8.59 load
[runlim] sample:		1206.98 time, 140.01 real, 170 MB, 8.38 load
[runlim] sample:		1292.80 time, 150.02 real, 171 MB, 7.80 load
[runlim] sample:		1378.19 time, 160.01 real, 172 MB, 7.22 load
[runlim] sample:		1464.53 time, 170.01 real, 173 MB, 8.04 load
[runlim] sample:		1554.39 time, 180.01 real, 174 MB, 8.15 load
[runlim] sample:		1642.45 time, 190.01 real, 175 MB, 8.22 load
[runlim] sample:		1729.66 time, 200.01 real, 176 MB, 8.32 load
[runlim] sample:		1817.06 time, 210.01 real, 177 MB, 8.58 load
              22    2989k        342   11   F   554 != node_146
 + New bound is 15 (gap is 31.82%)
[runlim] sample:		1903.69 time, 220.01 real, 178 MB, 8.34 load
[runlim] sample:		1993.69 time, 230.01 real, 179 MB, 7.90 load
[runlim] sample:		2081.14 time, 240.01 real, 180 MB, 7.72 load
              22    3352k        340    4   F   694 != node_155
 + New bound is 17 (gap is 22.73%)
[runlim] sample:		2168.53 time, 250.01 real, 181 MB, 7.98 load
[runlim] sample:		2256.65 time, 260.02 real, 182 MB, 8.52 load
              22    3592k        352    2   F   366 != node_344
 + New bound is 18 (gap is 18.18%)
 ! Time = 268.04s, Average fail depth = 21, Memory usage = 59.1 MB
 ! Current bound is 18 (gap is 18.18%)
 !          Best Branches  Non-fixed    W       Branch decision
[runlim] sample:		2344.71 time, 270.02 real, 183 MB, 7.66 load
              22    3746k        330    7            -
 + New bound is 22 (gap is 0.00%)
 ! ----------------------------------------------------------------------------
 ! Search completed, 12 solutions found.
 ! Best objective         : 22 (optimal - effective tol. is 0)
 ! Best bound             : 22
 ! ----------------------------------------------------------------------------
 ! Number of branches     : 41230225
 ! Number of fails        : 20626082
 ! Total memory usage     : 88.6 MB (88.4 MB CP Optimizer + 0.3 MB Concert)
 ! Time spent in solve    : 270.19s (270.17s engine + 0.02s extraction)
 ! Search speed (br. / s) : 152608.5
 ! ----------------------------------------------------------------------------

==============================
OPTIMAL SOLUTION:
Label list: [58, 296, 30, 268, 114, 352, 44, 282, 156, 394, 156, 394, 128, 366, 114, 352, 16, 254, 156, 394, 16, 254, 72, 310, 142, 380, 72, 310, 128, 366, 58, 296, 142, 380, 128, 366, 16, 254, 736, 498, 114, 352, 44, 282, 142, 380, 44, 282, 86, 324, 58, 296, 114, 352, 142, 380, 16, 254, 72, 310, 128, 366, 128, 366, 30, 268, 58, 296, 142, 380, 114, 352, 44, 282, 156, 394, 156, 394, 58, 296, 114, 352, 16, 254, 58, 296, 30, 268, 16, 254, 16, 254, 114, 352, 156, 394, 142, 380, 142, 380, 16, 254, 16, 254, 86, 324, 156, 394, 128, 366, 156, 394, 114, 352, 736, 498, 16, 254, 86, 324, 736, 498, 128, 366, 156, 394, 16, 254, 44, 282, 58, 296, 30, 268, 736, 498, 736, 498, 156, 394, 156, 394, 72, 310, 30, 268, 16, 254, 44, 282, 58, 296, 16, 254, 156, 394, 156, 394, 86, 324, 128, 366, 16, 254, 58, 296, 44, 282, 156, 394, 156, 394, 128, 366, 736, 498, 16, 254, 736, 498, 58, 296, 16, 254, 86, 324, 30, 268, 16, 254, 128, 366, 128, 366, 58, 296, 30, 268, 142, 380, 736, 498, 30, 268, 736, 498, 86, 324, 72, 310, 142, 380, 114, 352, 114, 352, 114, 352, 156, 394, 58, 296, 114, 352, 128, 366, 128, 366, 44, 282, 30, 268, 736, 498, 128, 366, 44, 282, 86, 324, 16, 254, 58, 296, 114, 352, 72, 310, 44, 282, 156, 394, 58, 296, 156, 394, 86, 324, 114, 352, 16, 254, 30, 268, 736, 498, 156, 394, 156, 394, 58, 296, 86, 324, 156, 394, 86, 324, 16, 254, 156, 394, 736, 498, 58, 296, 156, 394, 72, 310, 156, 394, 142, 380, 16, 254, 114, 352, 30, 268, 114, 352, 86, 324, 72, 310, 142, 380, 44, 282, 58, 296, 128, 366, 128, 366, 16, 254, 16, 254, 86, 324, 156, 394, 86, 324, 156, 394, 736, 498, 30, 268, 142, 380, 142, 380, 58, 296, 736, 498, 128, 366, 128, 366, 16, 254, 30, 268, 156, 394, 30, 268, 58, 296, 30, 268, 16, 254, 72, 310, 44, 282, 86, 324, 72, 310, 72, 310, 16, 254, 30, 268, 30, 268, 44, 282, 128, 366, 72, 310, 44, 282, 72, 310, 142, 380, 736, 498, 30, 268, 16, 254, 156, 394, 156, 394, 16, 254, 30, 268]
Number of labels used: 22
Specific labels: [16, 30, 44, 58, 72, 86, 114, 128, 142, 156, 254, 268, 282, 296, 310, 324, 352, 366, 380, 394, 498, 736]
==============================
Total time: 270.27s
Memory used: 27.61 MB
[runlim] end:			Wed Mar 25 06:00:47 2026
[runlim] status:		ok
[runlim] result:		0
[runlim] children:		2
[runlim] processes:		3
[runlim] real:			270.35 seconds
[runlim] time:			2347.55 seconds
[runlim] space:			183 MB
[runlim] load:			9.96 maximum
[runlim] samples:		2704
